DIMENSION: 18
EDGE_WEIGHT_TYPE : EUC_2D
NODE_COORD_SECTION
1 67.00 23.00
2 21.00 66.00
3 2.00 16.00
4 37.00 61.00
5 78.00 33.00
6 49.00 36.00
7 3.00 74.00
8 37.00 16.00
9 53.00 34.00
10 3.00 75.00
11 82.00 48.00
12 34.00 25.00
13 43.00 65.00
14 49.00 53.00
15 24.00 68.00
16 77.00 48.00
17 29.00 49.00
18 85.00 100.00
TOUR_SECTION
6
12
8
3
7
10
2
15
17
4
13
14
18
11
16
5
1
9